#
# Ag01N0_F ri-B2PLYP-D3BJ/Def2-TZVP
#
! rijk ri-b2plyp d3bj def2-tzvp def2/jk def2/c grid4 nofinalgrid opt xyzfile numfreq

*xyz 0 1
Ag       0.000000    0.000000    0.317712 
F        0.000000    0.000000   -1.659163 
*

%maxcore 5000

%pal
nprocs = 24
end

