#
# Ag03N0_D3H ri-B2PLYP-D3BJ/Def2-TZVPPD
#
! rijk ri-b2plyp d3bj def2-tzvppd def2/jk def2/c grid4 nofinalgrid opt xyzfile numfreq

*xyz 0 2
Ag       0.000000    1.533951   -0.000000 
Ag       1.328441   -0.766976    0.000000 
Ag      -1.328441   -0.766976   -0.000000 
*

%maxcore 5000

%pal
nprocs = 24
end

