#
# Au04C2_H_E ri-B2PLYP-D3BJ/Def2-QZVPPD
#
! rijk ri-b2plyp d3bj def2-qzvppd def2/jk def2/c grid4 nofinalgrid opt xyzfile numfreq

*xyz 2 2
Au       0.000000    1.337591    1.056475 
Au      -0.000000   -1.337591    1.056475 
Au      -1.306954    0.000000   -1.070288 
Au       1.306954   -0.000000   -1.070288 
H       -0.000000    0.000000    2.182427 
*

%maxcore 5000

%pal
nprocs = 24
end

