#
# Cu01N0_H ri-B2PLYP-D3BJ/Def2-QZVPPD
#
! rijk ri-b2plyp d3bj def2-qzvppd def2/jk def2/c grid4 nofinalgrid opt xyzfile numfreq

*xyz 0 1
Cu       0.000000    0.000000    0.048513 
H        0.000000    0.000000   -1.406870 
*

%maxcore 5000

%pal
nprocs = 24
end

