#
# Ag04C2_H_E ri-B2PLYP-D3BJ/Def2-QZVPPD
#
! rijk ri-b2plyp d3bj def2-qzvppd def2/jk def2/c grid4 nofinalgrid opt xyzfile numfreq

*xyz 2 2
Ag      -0.000000    1.374598    1.108828 
Ag      -0.000000   -1.374598    1.108828 
Ag      -1.374988    0.000000   -1.132689 
Ag       1.374988   -0.000000   -1.132689 
H        0.000000    0.000000    2.242952 
*

%maxcore 5000

%pal
nprocs = 24
end

