#
# Ag04C2_NH3_F ri-B2PLYP-D3BJ/Def2-QZVPPD
#
! rijk ri-b2plyp d3bj def2-qzvppd def2/jk def2/c grid4 nofinalgrid opt xyzfile numfreq

*xyz 2 1
Ag       0.000000    1.593354   -0.403942 
Ag       1.379885   -0.796677   -0.403942 
Ag      -1.379885   -0.796677   -0.403942 
Ag       0.000000    0.000000    1.894943 
N        0.000000    0.000000   -3.082630 
H        0.808649    0.466874   -3.509356 
H       -0.000000   -0.933748   -3.509356 
H       -0.808649    0.466874   -3.509356 
*

%maxcore 5000

%pal
nprocs = 24
end

