#
# Cu03N0_LIN ri-B2PLYP-D3BJ/Def2-QZVPPD
#
! rijk ri-b2plyp d3bj def2-qzvppd def2/jk def2/c grid4 nofinalgrid opt xyzfile numfreq

*xyz 0 2
Cu       0.000000    0.000000    0.000000 
Cu       0.000000    0.000000    2.291099 
Cu       0.000000    0.000000   -2.291099 
*

%maxcore 5000

%pal
nprocs = 24
end

