memory 144 GB

molecule {
0 2
Ag       0.000000    0.000000    0.000000 
 }

set reference uks
set dynamic_level 1
set basis Def2-TZVPPD
set df_basis Def2-universal-JKFIT

energy("M11-D3BJ")
