memory 144 GB

molecule {
2 2
Ag      -0.000000    1.374598    1.108828 
Ag      -0.000000   -1.374598    1.108828 
Ag      -1.374988    0.000000   -1.132689 
Ag       1.374988   -0.000000   -1.132689 
H        0.000000    0.000000    2.242952 
 }

set reference uks
set basis Def2-TZVPPD

energy("M11-D3BJ")
