memory 144 GB

molecule {
2 1
Ag      -0.000000   -0.000016    1.715553 
Ag       0.000000   -1.617524   -0.571836 
Ag       1.400774    0.808769   -0.571859 
Ag      -1.400774    0.808770   -0.571858 
 }

set basis Def2-TZVPPD

energy("M11-D3BJ")
