memory 144 GB

molecule {
2 1
Ag       0.000000    1.593354   -0.403942 
Ag       1.379885   -0.796677   -0.403942 
Ag      -1.379885   -0.796677   -0.403942 
Ag       0.000000    0.000000    1.894943 
N        0.000000    0.000000   -3.082630 
H        0.808649    0.466874   -3.509356 
H       -0.000000   -0.933748   -3.509356 
H       -0.808649    0.466874   -3.509356 
 }

set basis Def2-TZVPPD

energy("M11-D3BJ")
