memory 144 GB

molecule {
2 2
Au       0.000000    1.337591    1.056475 
Au      -0.000000   -1.337591    1.056475 
Au      -1.306954    0.000000   -1.070288 
Au       1.306954   -0.000000   -1.070288 
H       -0.000000    0.000000    2.182427 
 }

set reference uks
set dynamic_level 1
set basis Def2-TZVPPD
set df_basis Def2-universal-JKFIT

energy("M11-D3BJ")
