memory 144 GB

molecule {
2 1
Cu      -0.000001   -0.000007    1.488630 
Cu       0.000001   -1.403449   -0.496203 
Cu       1.215485    0.701727   -0.496214 
Cu      -1.215485    0.701729   -0.496213 
 }

set basis Def2-TZVPPD

energy("M11-D3BJ")
