memory 144 GB

molecule {
0 1
Ag       0.000000    0.000000    0.033547 
H        0.000000    0.000000   -1.576706 
 }

set basis Def2-TZVPPD

energy("SCAN-D3BJ")
