memory 144 GB

molecule {
2 1
Ag      -0.268639    1.507918    0.000000 
Ag       1.705052   -0.492854   -0.000000 
Ag      -0.647170   -0.911099    1.379441 
Ag      -0.647170   -0.911099   -1.379441 
N       -0.647170    3.675657    0.000000 
H       -0.250844    4.149729    0.817426 
H       -0.250844    4.149729   -0.817426 
H       -1.645581    3.906275    0.000000 
 }

set dynamic_level 1
set basis Def2-TZVPPD
set df_basis Def2-universal-JKFIT

energy("SCAN-D3BJ")
