memory 144 GB

molecule {
2 2
Ag       0.000000    0.000000    1.733523 
Ag       0.000000    1.616553   -0.602470 
Ag      -1.399976   -0.808277   -0.602470 
Ag       1.399976   -0.808277   -0.602470 
H        0.000000    0.000000    3.472645 
 }

set reference uks
set basis Def2-TZVPPD

energy("SCAN-D3BJ")
