memory 144 GB

molecule {
0 1
Au       0.000000    0.000000    0.196853 
F        0.000000    0.000000   -1.727931 
 }

set basis Def2-TZVPPD

energy("SCAN-D3BJ")
