memory 144 GB

molecule {
0 1
Au       0.000000    0.000000    0.019034 
H        0.000000    0.000000   -1.503691 
 }

set basis Def2-TZVPPD

energy("SCAN-D3BJ")
