memory 144 GB

molecule {
2 1
Au       0.000000    1.548281   -0.453246 
Au       1.340851   -0.774141   -0.453246 
Au      -1.340851   -0.774141   -0.453246 
Au       0.000000    0.000000    1.783664 
N        0.000000    0.000000   -3.226055 
H       -0.813891    0.469900   -3.635956 
H        0.813891    0.469900   -3.635956 
H       -0.000000   -0.939800   -3.635956 
 }

set dynamic_level 1
set basis Def2-TZVPPD
set df_basis Def2-universal-JKFIT

energy("SCAN-D3BJ")
