memory 144 GB

molecule {
0 1
Cu       0.000000    0.000000    0.412716 
F        0.000000    0.000000   -1.329863 
 }

set basis Def2-TZVPPD

energy("SCAN-D3BJ")
