memory 144 GB

molecule {
2 2
Cu      -0.000000    1.401870   -0.545062 
Cu       1.214055   -0.700935   -0.545062 
Cu      -1.214055   -0.700935   -0.545062 
Cu       0.000000    0.000000    1.530006 
H        0.000000    0.000000    3.050192 
 }

set reference uks
set dynamic_level 1
set basis Def2-TZVPPD
set df_basis Def2-universal-JKFIT

energy("SCAN-D3BJ")
