memory 144 GB

molecule {
2 1
Cu       0.253817    1.375381    0.000000 
Cu       0.253817   -0.687598    1.191098 
Cu       0.253817   -0.687598   -1.191098 
Cu      -1.745352    0.000159    0.000000 
N        2.725949   -0.000959   -0.000000 
H        3.150217   -0.936878   -0.000000 
H        3.150637    0.466806   -0.810419 
H        3.150637    0.466806    0.810419 
 }

set basis Def2-TZVPPD

energy("SCAN-D3BJ")
