memory 144 GB

molecule {
0 2
F        0.000000    0.000000    0.000000 
 }

set reference uks
set basis Def2-TZVPPD

energy("SCAN-D3BJ")
