#
# Ag04C2_H_F ri-B2PLYP-D3BJ/Def2-TZVPPD
#
! rijk ri-b2plyp d3bj def2-tzvppd def2/jk def2-tzvppd/c grid4 nofinalgrid

*xyz 2 2
Ag       0.000000    1.604405   -0.611776 
Ag       1.389456   -0.802203   -0.611776 
Ag      -1.389456   -0.802203   -0.611776 
Ag       0.000000    0.000000    1.871824 
H        0.000000    0.000000   -1.715373 
*

%maxcore 5000

%pal
nprocs = 24
end

