#
# Au04C2_H_F ri-B2PLYP-D3BJ/Def2-TZVPPD
#
! rijk ri-b2plyp d3bj def2-tzvppd def2/jk def2-tzvppd/c grid4 nofinalgrid

*xyz 2 2
Au       0.000000    1.567068   -0.568281 
Au       1.357120   -0.783534   -0.568281 
Au      -1.357120   -0.783534   -0.568281 
Au       0.000000    0.000000    1.725922 
H        0.000000    0.000000   -1.665144 
*

%maxcore 5000

%pal
nprocs = 24
end

