#
# Au04N0 ri-B2PLYP-D3BJ/Def2-TZVPPD
#
! rijk ri-b2plyp d3bj def2-tzvppd def2/jk def2/c grid4 nofinalgrid

*xyz 0 1
Au      -0.788661   -0.016684    2.209526 
Au      -1.223332   -0.011467   -0.436740 
Au       0.788385    0.016579   -2.209564 
Au       1.223608    0.011572    0.436778 
*

%maxcore 5000

%pal
nprocs = 24
end

