#
# Cu04C2_NH3_F ri-B2PLYP-D3BJ/Def2-TZVPPD
#
! rijk ri-b2plyp d3bj def2-tzvppd def2/jk def2-tzvppd/c grid4 nofinalgrid

*xyz 2 1
Cu       0.253817    1.375381    0.000000 
Cu       0.253817   -0.687598    1.191098 
Cu       0.253817   -0.687598   -1.191098 
Cu      -1.745352    0.000159    0.000000 
N        2.725949   -0.000959   -0.000000 
H        3.150217   -0.936878   -0.000000 
H        3.150637    0.466806   -0.810419 
H        3.150637    0.466806    0.810419 
*

%maxcore 5000

%pal
nprocs = 24
end

