#
# Cu04C2_H_A ri-B2PLYP-D3BJ/Def2-TZVPPD
#
! rijk ri-b2plyp d3bj def2-tzvppd def2/jk def2/c grid4 nofinalgrid

*xyz 2 2
Cu      -0.000000    1.401870   -0.545062 
Cu       1.214055   -0.700935   -0.545062 
Cu      -1.214055   -0.700935   -0.545062 
Cu       0.000000    0.000000    1.530006 
H        0.000000    0.000000    3.050192 
*

%maxcore 5000

%pal
nprocs = 24
end

