#
# Ag03N0_LIN M06-D3BJ/Def2-TZVPPD
#
! m06 d3zero def2-tzvppd def2/jk grid4 nofinalgrid

*xyz 0 2
Ag       0.000000    0.000000    0.000000 
Ag       0.000000    0.000000    2.592532 
Ag       0.000000    0.000000   -2.592532 
*

%maxcore 5000

%pal
nprocs = 24
end

