#
# Ag04C2_NH3_F M06-D3BJ/Def2-TZVPPD
#
! m06 d3zero def2-tzvppd def2/jk grid4 nofinalgrid

*xyz 2 1
Ag       0.000000    1.593354   -0.403942 
Ag       1.379885   -0.796677   -0.403942 
Ag      -1.379885   -0.796677   -0.403942 
Ag       0.000000    0.000000    1.894943 
N        0.000000    0.000000   -3.082630 
H        0.808649    0.466874   -3.509356 
H       -0.000000   -0.933748   -3.509356 
H       -0.808649    0.466874   -3.509356 
*

%maxcore 5000

%pal
nprocs = 24
end

