#
# Ag04C2_H_F M06-D3BJ/Def2-TZVPPD
#
! m06 d3zero def2-tzvppd def2/jk grid4 nofinalgrid

*xyz 2 2
Ag       0.000000    1.604405   -0.611776 
Ag       1.389456   -0.802203   -0.611776 
Ag      -1.389456   -0.802203   -0.611776 
Ag       0.000000    0.000000    1.871824 
H        0.000000    0.000000   -1.715373 
*

%maxcore 5000

%pal
nprocs = 24
end

