#
# Au01N0_H M06-D3BJ/Def2-TZVPPD
#
! m06 d3zero def2-tzvppd def2/jk grid4 nofinalgrid

*xyz 0 1
Au       0.000000    0.000000    0.019034 
H        0.000000    0.000000   -1.503691 
*

%maxcore 5000

%pal
nprocs = 24
end

