#
# Au04C2_NH3_A M06-D3BJ/Def2-TZVPPD
#
! m06 d3zero def2-tzvppd def2/jk grid4 nofinalgrid

*xyz 2 1
Au      -0.274490    1.572639   -0.000000 
Au       1.635934   -0.418177    0.000000 
Au      -0.639028   -0.815642    1.333593 
Au      -0.639028   -0.815642   -1.333593 
N       -0.639028    3.654013   -0.000000 
H       -0.235750    4.112347    0.824759 
H       -0.235750    4.112347   -0.824759 
H       -1.642949    3.866239   -0.000000 
*

%maxcore 5000

%pal
nprocs = 24
end

