#
# Cu01N0 M06-D3BJ/Def2-TZVPPD
#
! m06 d3zero def2-tzvppd def2/jk grid4 nofinalgrid

*xyz 0 2
Cu       0.000000    0.000000    0.000000 
*

%maxcore 5000

%pal
nprocs = 24
end

