#
# Au03C1_LIN TPSSh-D3BJ/Def2-TZVP
#
! tpssh d3bj def2-tzvp def2/jk grid4 nofinalgrid opt xyzfile numfreq

*xyz 1 1
Au       0.000000    0.000000    0.000000 
Au       0.000000    0.000000    2.576864 
Au       0.000000    0.000000   -2.576864 
*

%maxcore 5000

%pal
nprocs = 24
end

