#
# Au04N0 TPSSh-D3BJ/Def2-QZVPPD
#
! tpssh d3bj def2-qzvppd def2/jk grid4 nofinalgrid opt xyzfile numfreq

*xyz 0 1
Au      -0.788661   -0.016684    2.209526 
Au      -1.223332   -0.011467   -0.436740 
Au       0.788385    0.016579   -2.209564 
Au       1.223608    0.011572    0.436778 
*

%maxcore 5000

%pal
nprocs = 24
end

