#
# Cu01N0_F TPSSh-D3BJ/Def2-TZVP
#
! tpssh d3bj def2-tzvp def2/jk grid4 nofinalgrid opt xyzfile numfreq

*xyz 0 1
Cu       0.000000    0.000000    0.412716 
F        0.000000    0.000000   -1.329863 
*

%maxcore 5000

%pal
nprocs = 24
end

