#
# Cu03C1_D3H TPSSh-D3BJ/Def2-TZVPPD
#
! tpssh d3bj def2-tzvppd def2/jk grid4 nofinalgrid opt xyzfile numfreq

*xyz 1 1
Cu       0.000000    1.349261   -0.000000 
Cu       1.168494   -0.674630    0.000000 
Cu      -1.168494   -0.674630   -0.000000 
*

%maxcore 5000

%pal
nprocs = 24
end

