#
# Ag04C2 wB97M-V/Def2-TZVPPD
#
! wb97m-v def2-tzvppd def2/jk grid4 nofinalgrid

*xyz 2 1
Ag      -0.000000   -0.000016    1.715553 
Ag       0.000000   -1.617524   -0.571836 
Ag       1.400774    0.808769   -0.571859 
Ag      -1.400774    0.808770   -0.571858 
*

%maxcore 5000

%pal
nprocs = 24
end

