#
# Cu01N0_F wB97M-V/Def2-TZVPPD
#
! wb97m-v def2-tzvppd def2/jk grid4 nofinalgrid

*xyz 0 1
Cu       0.000000    0.000000    0.412716 
F        0.000000    0.000000   -1.329863 
*

%maxcore 5000

%pal
nprocs = 24
end

