#
# Cu04C2_NH3_A wB97M-V/Def2-TZVPPD
#
! wb97m-v def2-tzvppd def2/jk grid4 nofinalgrid

*xyz 2 1
Cu       0.543145   -0.896300    1.192832 
Cu       0.543145   -0.896300   -1.192832 
Cu      -1.492086   -0.543328    0.000000 
Cu       0.211399    1.215580   -0.000000 
N        0.543145    3.129666   -0.000000 
H        0.146420    3.607894   -0.818022 
H        0.146420    3.607894    0.818022 
H        1.542647    3.366638   -0.000000 
*

%maxcore 5000

%pal
nprocs = 24
end

