memory 144 GB

molecule {
0 2
Ag       0.000000    0.000000    0.000000 
Ag       0.000000    0.000000    2.592532 
Ag       0.000000    0.000000   -2.592532 
 }

set reference uks
set basis Def2-TZVPPD

energy("MN15-D3BJ")
