memory 144 GB

molecule {
0 2
Au       0.000000    0.000000    0.000000 
 }

set reference uks
set basis Def2-TZVPPD

energy("MN15-D3BJ")
