memory 144 GB

molecule {
2 2
Au       0.000000    1.337591    1.056475 
Au      -0.000000   -1.337591    1.056475 
Au      -1.306954    0.000000   -1.070288 
Au       1.306954   -0.000000   -1.070288 
H       -0.000000    0.000000    2.182427 
 }

set reference uks
set basis Def2-TZVPPD

energy("MN15-D3BJ")
