memory 144 GB

molecule {
0 1
Cu       0.000000    0.000000    1.107490 
Cu       0.000000    0.000000   -1.107490 
 }

set basis Def2-TZVPPD

energy("MN15-D3BJ")
