memory 144 GB

molecule {
2 2
Cu      -0.000000    1.401870   -0.545062 
Cu       1.214055   -0.700935   -0.545062 
Cu      -1.214055   -0.700935   -0.545062 
Cu       0.000000    0.000000    1.530006 
H        0.000000    0.000000    3.050192 
 }

set reference uks
set basis Def2-TZVPPD

energy("MN15-D3BJ")
