#
# Ag01N0_F ri-DSD-BLYP/2013-D3BJ/Def2-QZVPPD
#
! rijk ri-dsd-blyp/2013 d3bj def2-qzvppd def2/jk def2/c grid4 nofinalgrid opt xyzfile numfreq

*xyz 0 1
Ag       0.000000    0.000000    0.317712 
F        0.000000    0.000000   -1.659163 
*

%maxcore 5000

%pal
nprocs = 24
end

