#
# Ag01N0_H ri-DSD-BLYP/2013-D3BJ/Def2-TZVP
#
! rijk ri-dsd-blyp/2013 d3bj def2-tzvp def2/jk def2/c grid4 nofinalgrid opt xyzfile numfreq

*xyz 0 1
Ag       0.000000    0.000000    0.033547 
H        0.000000    0.000000   -1.576706 
*

%maxcore 5000

%pal
nprocs = 24
end

