#
# Ag03N0_D3H ri-DSD-BLYP/2013-D3BJ/Def2-TZVP
#
! rijk ri-dsd-blyp/2013 d3bj def2-tzvp def2/jk def2/c grid4 nofinalgrid opt xyzfile numfreq

*xyz 0 2
Ag       0.000000    1.533951   -0.000000 
Ag       1.328441   -0.766976    0.000000 
Ag      -1.328441   -0.766976   -0.000000 
*

%maxcore 5000

%pal
nprocs = 24
end

