#
# Cu01N0_H ri-DSD-BLYP/2013-D3BJ/Def2-TZVPPD
#
! rijk ri-dsd-blyp/2013 d3bj def2-tzvppd def2/jk def2-tzvppd/c grid4 nofinalgrid opt xyzfile numfreq

*xyz 0 1
Cu       0.000000    0.000000    0.048513 
H        0.000000    0.000000   -1.406870 
*

%maxcore 5000

%pal
nprocs = 24
end

