#
# Cu04C2_H_A ri-DSD-BLYP/2013-D3BJ/Def2-QZVPPD
#
! rijk ri-dsd-blyp/2013 d3bj def2-qzvppd def2/jk def2/c grid4 nofinalgrid opt xyzfile numfreq

*xyz 2 2
Cu      -0.000000    1.401870   -0.545062 
Cu       1.214055   -0.700935   -0.545062 
Cu      -1.214055   -0.700935   -0.545062 
Cu       0.000000    0.000000    1.530006 
H        0.000000    0.000000    3.050192 
*

%maxcore 5000

%pal
nprocs = 24
end

