#
# Cu04C2_H_E ri-DSD-BLYP/2013-D3BJ/Def2-QZVPPD
#
! rijk ri-dsd-blyp/2013 d3bj def2-qzvppd def2/jk def2/c grid4 nofinalgrid opt xyzfile numfreq

*xyz 2 2
Cu      -0.967673    0.056725    1.180703 
Cu      -0.972439   -0.054931   -1.177653 
Cu       0.936359    1.185605   -0.057167 
Cu       0.933653   -1.187345    0.053806 
H        2.032882   -0.001578    0.009000 
*

%maxcore 5000

%pal
nprocs = 24
end

