memory 144 GB

molecule {
0 1
Ag       0.000000    0.000000    1.261821 
Ag       0.000000    0.000000   -1.261821 
 }

set basis Def2-TZVPPD

energy("GAM")
