memory 144 GB

molecule {
1 1
Ag       0.000000    1.529877    0.000000 
Ag       1.324912   -0.764938    0.000000 
Ag      -1.324912   -0.764938    0.000000 
 }

set basis Def2-TZVPPD

energy("GAM")
