memory 144 GB

molecule {
0 1
Ag      -1.015022   -0.433109    0.700282 
Ag       0.974659   -2.209777    0.043294 
Ag       1.013798    0.433158   -0.699441 
Ag      -0.973435    2.209727   -0.044135 
 }

set dynamic_level 1
set basis Def2-TZVPPD
set df_basis Def2-universal-JKFIT

energy("GAM")
