memory 144 GB

molecule {
0 1
Au       0.000000    0.000000    1.239541 
Au       0.000000    0.000000   -1.239541 
 }

set basis Def2-TZVPPD

energy("GAM")
