memory 144 GB

molecule {
1 1
Au       0.000000    0.000000    0.000000 
Au       0.000000    0.000000    2.576864 
Au       0.000000    0.000000   -2.576864 
 }

set basis Def2-TZVPPD

energy("GAM")
