memory 144 GB

molecule {
2 2
Au       0.000000    1.567068   -0.568281 
Au       1.357120   -0.783534   -0.568281 
Au      -1.357120   -0.783534   -0.568281 
Au       0.000000    0.000000    1.725922 
H        0.000000    0.000000   -1.665144 
 }

set reference uks
set basis Def2-TZVPPD

energy("GAM")
