memory 144 GB

molecule {
2 1
Au      -0.000000   -0.000044    1.659420 
Au      -1.354966    0.782292   -0.553161 
Au       1.354966    0.782292   -0.553161 
Au       0.000000   -1.564540   -0.553099 
 }

set basis Def2-TZVPPD

energy("GAM")
