memory 120 GB

molecule {
2 2
Au       0.000000    0.000000    1.750714 
Au      -0.000000    1.549973   -0.597614 
Au       1.342316   -0.774986   -0.597614 
Au      -1.342316   -0.774986   -0.597614 
H        0.000000    0.000000    3.328141 
 }

set reference uks
set basis Def2-TZVPPD

energy("GAM")
