#
# Ag01N0_H M06-D3BJ/Def2-QZVPPD
#
! m06 d3bj def2-qzvppd def2/jk grid4 nofinalgrid opt xyzfile numfreq

*xyz 0 1
Ag       0.000000    0.000000    0.033547 
H        0.000000    0.000000   -1.576706 
*

%maxcore 5000

%pal
nprocs = 24
end

