#
# Au01N0 M06-D3BJ/Def2-QZVPPD
#
! m06 d3bj def2-qzvppd def2/jk grid4 nofinalgrid opt xyzfile numfreq

*xyz 0 2
Au       0.000000    0.000000    0.000000 
*

%maxcore 5000

%pal
nprocs = 24
end

