#
# Ag03N0_D3H wB97X-V/Def2-TZVPPD
#
! wb97x-v def2-tzvppd def2/jk grid4 nofinalgrid opt xyzfile numfreq numgrad

*xyz 0 2
Ag       0.000000    1.533951   -0.000000 
Ag       1.328441   -0.766976    0.000000 
Ag      -1.328441   -0.766976   -0.000000 
*

%maxcore 5000

%pal
nprocs = 24
end

%geom
calc_hess true
numhess true
recalc_hess 10
maxiter 100
end

