#
# Au03N0_LIN wB97X-V/Def2-TZVPPD
#
! wb97x-v def2-tzvppd def2/jk grid4 nofinalgrid opt xyzfile numfreq numgrad

*xyz 0 2
Au       0.000000    0.000000    0.000000 
Au       0.000000    0.000000    2.547414 
Au       0.000000    0.000000   -2.547414 
*

%maxcore 5000

%pal
nprocs = 24
end

