#
# Au03C1_D3H wB97X-V/Def2-QZVPPD
#
! wb97x-v def2-qzvppd def2/jk grid4 nofinalgrid opt xyzfile numfreq

*xyz 1 1
Au       0.000000    1.501400   -0.000000 
Au       1.300251   -0.750700   -0.000000 
Au      -1.300251   -0.750700   -0.000000 
*

%maxcore 5000

%pal
nprocs = 24
end

