#
# Cu03N0_LIN wB97X-V/Def2-QZVPPD
#
! wb97x-v def2-qzvppd def2/jk grid4 nofinalgrid opt xyzfile numfreq

*xyz 0 2
Cu       0.000000    0.000000    0.000000 
Cu       0.000000    0.000000    2.291099 
Cu       0.000000    0.000000   -2.291099 
*

%maxcore 5000

%pal
nprocs = 24
end

