#
# Cu03C1_LIN wB97X-V/Def2-QZVPPD
#
! wb97x-v def2-qzvppd def2/jk grid4 nofinalgrid opt xyzfile numfreq

*xyz 1 1
Cu       0.000000    0.000000    0.000000 
Cu       0.000000    0.000000    2.337165 
Cu       0.000000    0.000000   -2.337165 
*

%maxcore 5000

%pal
nprocs = 24
end

