#
# Ag04C2 ri-DSD-BLYP/2013-D3BJ/Def2-TZVPPD
#
! rijk ri-dsd-blyp/2013 d3bj def2-tzvppd def2/jk def2/c grid4 nofinalgrid

*xyz 2 1
Ag      -0.000000   -0.000016    1.715553 
Ag       0.000000   -1.617524   -0.571836 
Ag       1.400774    0.808769   -0.571859 
Ag      -1.400774    0.808770   -0.571858 
*

%maxcore 5000

%pal
nprocs = 24
end

