#
# Au03N0_LIN ri-DSD-BLYP/2013-D3BJ/Def2-TZVPPD
#
! rijk ri-dsd-blyp/2013 d3bj def2-tzvppd def2/jk def2/c grid4 nofinalgrid

*xyz 0 2
Au       0.000000    0.000000    0.000000 
Au       0.000000    0.000000    2.547414 
Au       0.000000    0.000000   -2.547414 
*

%maxcore 5000

%pal
nprocs = 24
end

