#
# Au04C2_H_E ri-DSD-BLYP/2013-D3BJ/Def2-TZVPPD
#
! rijk ri-dsd-blyp/2013 d3bj def2-tzvppd def2/jk def2-tzvppd/c grid4 nofinalgrid

*xyz 2 2
Au       0.000000    1.337591    1.056475 
Au      -0.000000   -1.337591    1.056475 
Au      -1.306954    0.000000   -1.070288 
Au       1.306954   -0.000000   -1.070288 
H       -0.000000    0.000000    2.182427 
*

%maxcore 5000

%pal
nprocs = 24
end

