#
# Au04C2 ri-DSD-BLYP/2013-D3BJ/Def2-TZVPPD
#
! rijk ri-dsd-blyp/2013 d3bj def2-tzvppd def2/jk def2/c grid4 nofinalgrid

*xyz 2 1
Au      -0.000000   -0.000044    1.659420 
Au      -1.354966    0.782292   -0.553161 
Au       1.354966    0.782292   -0.553161 
Au       0.000000   -1.564540   -0.553099 
*

%maxcore 5000

%pal
nprocs = 24
end

