#
# Cu03C1_D3H ri-DSD-BLYP/2013-D3BJ/Def2-TZVPPD
#
! rijk ri-dsd-blyp/2013 d3bj def2-tzvppd def2/jk def2/c grid4 nofinalgrid

*xyz 1 1
Cu       0.000000    1.349261   -0.000000 
Cu       1.168494   -0.674630    0.000000 
Cu      -1.168494   -0.674630   -0.000000 
*

%maxcore 5000

%pal
nprocs = 24
end

