#
# Cu03C1_LIN ri-DSD-BLYP/2013-D3BJ/Def2-TZVPPD
#
! rijk ri-dsd-blyp/2013 d3bj def2-tzvppd def2/jk def2-tzvppd/c grid4 nofinalgrid

*xyz 1 1
Cu       0.000000    0.000000    0.000000 
Cu       0.000000    0.000000    2.337165 
Cu       0.000000    0.000000   -2.337165 
*

%maxcore 5000

%pal
nprocs = 24
end

