#
# Cu04C2_H_F ri-DSD-BLYP/2013-D3BJ/Def2-TZVPPD
#
! rijk ri-dsd-blyp/2013 d3bj def2-tzvppd def2/jk def2-tzvppd/c grid4 nofinalgrid

*xyz 2 2
Cu      -0.000000    1.387730   -0.507533 
Cu       1.201809   -0.693865   -0.507533 
Cu      -1.201809   -0.693865   -0.507533 
Cu       0.000000    0.000000    1.576640 
H        0.000000    0.000000   -1.567185 
*

%maxcore 5000

%pal
nprocs = 24
end

