memory 144 GB

molecule {
1 1
Au       0.000000    0.000000    0.000000 
Au       0.000000    0.000000    2.576864 
Au       0.000000    0.000000   -2.576864 
 }

set dynamic_level 1
set basis Def2-TZVPPD

optimize("M11-D3BJ")
frequencies("M11-D3BJ")
