#
# Ag03C1_LIN TPSS-D3BJ/Def2-TZVP
#
! tpss d3bj def2-tzvp def2/j grid4 nofinalgrid opt xyzfile numfreq

*xyz 1 1
Ag       0.000000    0.000000    0.000000 
Ag       0.000000    0.000000    2.629319 
Ag       0.000000    0.000000   -2.629319 
*

%maxcore 5000

%pal
nprocs = 24
end

