#
# Ag03N0_LIN TPSS-D3BJ/Def2-TZVP
#
! tpss d3bj def2-tzvp def2/j grid4 nofinalgrid opt xyzfile numfreq

*xyz 0 2
Ag       0.000000    0.000000    0.000000 
Ag       0.000000    0.000000    2.592532 
Ag       0.000000    0.000000   -2.592532 
*

%maxcore 5000

%pal
nprocs = 24
end

