#
# Au03C1_D3H TPSS-D3BJ/Def2-TZVPPD
#
! tpss d3bj def2-tzvppd def2/j grid4 nofinalgrid opt xyzfile numfreq

*xyz 1 1
Au       0.000000    1.501400   -0.000000 
Au       1.300251   -0.750700   -0.000000 
Au      -1.300251   -0.750700   -0.000000 
*

%maxcore 5000

%pal
nprocs = 24
end

