#
# Cu03N0_D3H TPSS-D3BJ/Def2-TZVPPD
#
! tpss d3bj def2-tzvppd def2/j grid4 nofinalgrid opt xyzfile numfreq

*xyz 0 2
Cu       0.000000    1.346828   -0.000000 
Cu       1.166387   -0.673414   -0.000000 
Cu      -1.166387   -0.673414   -0.000000 
*

%maxcore 5000

%pal
nprocs = 24
end

