#
# Cu04C2_H_F TPSS-D3BJ/Def2-QZVPPD
#
! tpss d3bj def2-qzvppd def2/j grid4 nofinalgrid opt xyzfile numfreq

*xyz 2 2
Cu      -0.000000    1.387730   -0.507533 
Cu       1.201809   -0.693865   -0.507533 
Cu      -1.201809   -0.693865   -0.507533 
Cu       0.000000    0.000000    1.576640 
H        0.000000    0.000000   -1.567185 
*

%maxcore 5000

%pal
nprocs = 24
end

