#
# F TPSS-D3BJ/Def2-QZVPPD
#
! tpss d3bj def2-qzvppd def2/j grid4 nofinalgrid opt xyzfile numfreq

*xyz 0 2
F        0.000000    0.000000    0.000000 
*

%maxcore 5000

%pal
nprocs = 24
end

