#
# Ag01N0 TPSS-D3BJ/Def2-QZVPPD
#
! tpss d3bj def2-qzvppd def2/jk grid4 nofinalgrid opt xyzfile numfreq

*xyz 0 2
Ag       0.000000    0.000000    0.000000 
*

%maxcore 5000

%pal
nprocs = 24
end

