#
# Ag04C2_NH3_A TPSS-D3BJ/Def2-QZVPPD
#
! tpss d3bj def2-qzvppd def2/jk grid4 nofinalgrid opt xyzfile numfreq

*xyz 2 1
Ag      -0.268639    1.507918    0.000000 
Ag       1.705052   -0.492854   -0.000000 
Ag      -0.647170   -0.911099    1.379441 
Ag      -0.647170   -0.911099   -1.379441 
N       -0.647170    3.675657    0.000000 
H       -0.250844    4.149729    0.817426 
H       -0.250844    4.149729   -0.817426 
H       -1.645581    3.906275    0.000000 
*

%maxcore 5000

%pal
nprocs = 24
end

