#
# Ag04C2_H_A TPSS-D3BJ/Def2-QZVPPD
#
! tpss d3bj def2-qzvppd def2/jk grid4 nofinalgrid opt xyzfile numfreq

*xyz 2 2
Ag       0.000000    0.000000    1.733523 
Ag       0.000000    1.616553   -0.602470 
Ag      -1.399976   -0.808277   -0.602470 
Ag       1.399976   -0.808277   -0.602470 
H        0.000000    0.000000    3.472645 
*

%maxcore 5000

%pal
nprocs = 24
end

