#
# Au03N0_LIN TPSS-D3BJ/Def2-QZVPPD
#
! tpss d3bj def2-qzvppd def2/j grid4 nofinalgrid opt xyzfile numfreq

*xyz 0 2
Au       0.000000    0.000000    0.000000 
Au       0.000000    0.000000    2.547414 
Au       0.000000    0.000000   -2.547414 
*

%maxcore 5000

%pal
nprocs = 24
end

