#
# Au04C2_H_F TPSS-D3BJ/Def2-QZVPPD
#
! tpss d3bj def2-qzvppd def2/jk grid4 nofinalgrid opt xyzfile numfreq

*xyz 2 2
Au       0.000000    1.567068   -0.568281 
Au       1.357120   -0.783534   -0.568281 
Au      -1.357120   -0.783534   -0.568281 
Au       0.000000    0.000000    1.725922 
H        0.000000    0.000000   -1.665144 
*

%maxcore 5000

%pal
nprocs = 24
end

