#
# Au04C2_H_A TPSS-D3BJ/Def2-QZVPPD
#
! tpss d3bj def2-qzvppd def2/jk grid4 nofinalgrid opt xyzfile numfreq

*xyz 2 2
Au       0.000000    0.000000    1.750714 
Au      -0.000000    1.549973   -0.597614 
Au       1.342316   -0.774986   -0.597614 
Au      -1.342316   -0.774986   -0.597614 
H        0.000000    0.000000    3.328141 
*

%maxcore 5000

%pal
nprocs = 24
end

