#
# Cu03C1_LIN TPSS-D3BJ/Def2-QZVPPD
#
! tpss d3bj def2-qzvppd def2/jk grid4 nofinalgrid opt xyzfile numfreq

*xyz 1 1
Cu       0.000000    0.000000    0.000000 
Cu       0.000000    0.000000    2.337165 
Cu       0.000000    0.000000   -2.337165 
*

%maxcore 5000

%pal
nprocs = 24
end

