memory 120 GB

molecule {
0 1
Au       0.000000    0.000000    1.239541 
Au       0.000000    0.000000   -1.239541 
 }

set dynamic_level 1
set basis Def2-TZVPPD

optimize("MN15-D3BJ")
frequencies("MN15-D3BJ")
