memory 144 GB

molecule {
1 1
Au       0.000000    1.501400   -0.000000 
Au       1.300251   -0.750700   -0.000000 
Au      -1.300251   -0.750700   -0.000000 
 }

set dynamic_level 1
set basis Def2-TZVPPD

optimize("MN15-D3BJ")
frequencies("MN15-D3BJ")
