memory 144 GB

molecule {
2 2
Cu      -0.000000    1.387730   -0.507533 
Cu       1.201809   -0.693865   -0.507533 
Cu      -1.201809   -0.693865   -0.507533 
Cu       0.000000    0.000000    1.576640 
H        0.000000    0.000000   -1.567185 
 }

set reference uks
set dynamic_level 1
set basis Def2-TZVPPD
set df_basis Def2-universal-JKFIT

energy("M15-D3BJ")
