memory 144 GB

molecule {
0 1
Cu      -0.387876   -0.085256    2.052405 
Cu       1.110029    0.096858    0.214111 
Cu       0.386859    0.085217   -2.052443 
Cu      -1.109011   -0.096818   -0.214073 
 }

set dynamic_level 1
set basis Def2-TZVPPD
set df_basis Def2-universal-JKFIT

energy("M15-D3BJ")
