memory 144 GB

molecule {
0 1
Ag       0.000000    0.000000    0.317712 
F        0.000000    0.000000   -1.659163 
 }

set dynamic_level 1
set basis Def2-TZVPPD
set df_basis Def2-universal-JKFIT

optimize("SCAN-D3BJ")
frequencies("SCAN-D3BJ")
