memory 144 GB

molecule {
0 1
Au       0.000000    0.000000    0.019034 
H        0.000000    0.000000   -1.503691 
 }

set dynamic_level 1
set basis Def2-TZVPPD

optimize("SCAN-D3BJ")
frequencies("SCAN-D3BJ")
