memory 120 GB

molecule {
0 1
Au       0.000000    0.000000    0.196853 
F        0.000000    0.000000   -1.727931 
 }

set dynamic_level 1
set basis Def2-TZVPPD

optimize("SCAN-D3BJ")
frequencies("SCAN-D3BJ")
