#
# Cu04N0 TPSS-D3BJ/Def2-TZVPPD
#
! tpss d3bj def2-tzvppd def2/j grid4 nofinalgrid

*xyz 0 1
Cu      -0.387876   -0.085256    2.052405 
Cu       1.110029    0.096858    0.214111 
Cu       0.386859    0.085217   -2.052443 
Cu      -1.109011   -0.096818   -0.214073 
*

%maxcore 5000

%pal
nprocs = 24
end

