memory 144 GB

molecule {
0 2
Au       0.000000    0.000000    0.000000 
Au       0.000000    0.000000    2.547414 
Au       0.000000    0.000000   -2.547414 
 }

set reference uks
set dynamic_level 1
set basis Def2-TZVPPD

optimize("GAM")
frequencies("GAM")
