memory 144 GB

molecule {
0 2
Au       0.000000    1.515176   -0.000000 
Au       1.312181   -0.757588    0.000000 
Au      -1.312181   -0.757588   -0.000000 
 }

set reference uks
set dynamic_level 1
set basis Def2-TZVPPD
set df_basis Def2-universal-JKFIT

optimize("GAM")
frequencies("GAM")
