memory 144 GB

molecule {
0 2
Cu       0.000000    1.346828   -0.000000 
Cu       1.166387   -0.673414   -0.000000 
Cu      -1.166387   -0.673414   -0.000000 
 }

set reference uks
set dynamic_level 1
set basis Def2-TZVPPD
set mom_start 10

optimize("GAM")
frequencies("GAM")
