#
# Ag03C1_LIN wB97X-V/Def2-TZVPPD
#
! wb97x-v def2-tzvppd def2/jk grid4 nofinalgrid

*xyz 1 1
Ag       0.000000    0.000000    0.000000 
Ag       0.000000    0.000000    2.629319 
Ag       0.000000    0.000000   -2.629319 
*

%maxcore 5000

%pal
nprocs = 24
end

