#
# Ag04C2_H_E wB97X-V/Def2-TZVPPD
#
! wb97x-v def2-tzvppd def2/jk grid4 nofinalgrid

*xyz 2 2
Ag      -0.000000    1.374598    1.108828 
Ag      -0.000000   -1.374598    1.108828 
Ag      -1.374988    0.000000   -1.132689 
Ag       1.374988   -0.000000   -1.132689 
H        0.000000    0.000000    2.242952 
*

%maxcore 5000

%pal
nprocs = 24
end

