#
# Au01N0_F wB97X-V/Def2-TZVPPD
#
! wb97x-v def2-tzvppd def2/jk grid4 nofinalgrid

*xyz 0 1
Au       0.000000    0.000000    0.196853 
F        0.000000    0.000000   -1.727931 
*

%maxcore 5000

%pal
nprocs = 24
end

