#
# Cu02N0 M06-D3BJ/Def2-TZVPPD
#
! m06 d3bj def2-tzvppd def2/jk grid4 nofinalgrid

*xyz 0 1
Cu       0.000000    0.000000    1.107490 
Cu       0.000000    0.000000   -1.107490 
*

%maxcore 5000

%pal
nprocs = 24
end

