#
# Ag04N0 wB97M-V/Def2-QZVPPD
#
! wb97m-v def2-qzvppd def2/jk grid4 nofinalgrid opt xyzfile numfreq

*xyz 0 1
Ag      -1.015022   -0.433109    0.700282 
Ag       0.974659   -2.209777    0.043294 
Ag       1.013798    0.433158   -0.699441 
Ag      -0.973435    2.209727   -0.044135 
*

%maxcore 5000

%pal
nprocs = 24
end

