#
# Au01N0_H wB97M-V/Def2-QZVPPD
#
! wb97m-v def2-qzvppd def2/jk grid4 nofinalgrid opt xyzfile numfreq

*xyz 0 1
Au       0.000000    0.000000    0.019034 
H        0.000000    0.000000   -1.503691 
*

%maxcore 5000

%pal
nprocs = 24
end

