#
# Au02N0 wB97M-V/Def2-TZVPPD
#
! wb97m-v def2-tzvppd def2/jk grid4 nofinalgrid opt xyzfile numfreq numgrad

*xyz 0 1
Au       0.000000    0.000000    1.239541 
Au       0.000000    0.000000   -1.239541 
*

%maxcore 5000

%pal
nprocs = 24
end

