#
# Cu02N0 wB97M-V/Def2-TZVPPD
#
! wb97m-v def2-tzvppd def2/jk grid4 nofinalgrid opt xyzfile numfreq

*xyz 0 1
Cu       0.000000    0.000000    1.107490 
Cu       0.000000    0.000000   -1.107490 
*

%maxcore 5000

%pal
nprocs = 24
end

