#
# Cu03N0_LIN wB97M-V/Def2-TZVP
#
! wb97m-v def2-tzvp def2/jk grid4 nofinalgrid opt xyzfile numfreq

*xyz 0 2
Cu       0.000000    0.000000    0.000000 
Cu       0.000000    0.000000    2.291099 
Cu       0.000000    0.000000   -2.291099 
*

%maxcore 5000

%pal
nprocs = 24
end

