#
# H wB97M-V/Def2-QZVPPD
#
! wb97m-v def2-qzvppd def2/jk grid4 nofinalgrid opt xyzfile numfreq

*xyz 0 2
H        0.000000    0.000000    0.000000 
*

%maxcore 5000

%pal
nprocs = 24
end

