#
# Ag01N0_H wB97M-V/Def2-QZVPPD
#
! wb97m-v def2-qzvppd def2/jk grid4 nofinalgrid opt xyzfile numfreq

*xyz 0 1
Ag       0.000000    0.000000    0.033547 
H        0.000000    0.000000   -1.576706 
*

%maxcore 5000

%pal
nprocs = 24
end

