#
# Ag04C2_H_F wB97M-V/Def2-QZVPPD
#
! wb97m-v def2-qzvppd def2/jk grid4 nofinalgrid opt xyzfile numfreq

*xyz 2 2
Ag       0.000000    1.604405   -0.611776 
Ag       1.389456   -0.802203   -0.611776 
Ag      -1.389456   -0.802203   -0.611776 
Ag       0.000000    0.000000    1.871824 
H        0.000000    0.000000   -1.715373 
*

%maxcore 5000

%pal
nprocs = 24
end

