#
# Au03N0_LIN wB97M-V/Def2-QZVPPD
#
! wb97m-v def2-qzvppd def2/jk grid4 nofinalgrid opt xyzfile numfreq

*xyz 0 2
Au       0.000000    0.000000    0.000000 
Au       0.000000    0.000000    2.547414 
Au       0.000000    0.000000   -2.547414 
*

%maxcore 5000

%pal
nprocs = 24
end

