#
# Au04C2_H_E wB97M-V/Def2-QZVPPD
#
! wb97m-v def2-qzvppd def2/jk grid4 nofinalgrid opt xyzfile numfreq

*xyz 2 2
Au       0.000000    1.337591    1.056475 
Au      -0.000000   -1.337591    1.056475 
Au      -1.306954    0.000000   -1.070288 
Au       1.306954   -0.000000   -1.070288 
H       -0.000000    0.000000    2.182427 
*

%maxcore 5000

%pal
nprocs = 24
end

