#
# Cu03C1_D3H wB97M-V/Def2-QZVPPD
#
! wb97m-v def2-qzvppd def2/jk grid4 nofinalgrid opt xyzfile numfreq

*xyz 1 1
Cu       0.000000    1.349261   -0.000000 
Cu       1.168494   -0.674630    0.000000 
Cu      -1.168494   -0.674630   -0.000000 
*

%maxcore 5000

%pal
nprocs = 24
end

