#
# Ag02N0 M06-D3BJ/Def2-TZVPPD
#
! m06 d3bj def2-tzvppd def2/jk grid4 nofinalgrid opt xyzfile numfreq

*xyz 0 1
Ag       0.000000    0.000000    1.261821 
Ag       0.000000    0.000000   -1.261821 
*

%maxcore 5000

%pal
nprocs = 24
end

