#
# Ag03C1_D3H M06-D3BJ/Def2-TZVP
#
! m06 d3bj def2-tzvp def2/jk grid4 nofinalgrid opt xyzfile numfreq

*xyz 1 1
Ag       0.000000    1.529877    0.000000 
Ag       1.324912   -0.764938    0.000000 
Ag      -1.324912   -0.764938    0.000000 
*

%maxcore 5000

%pal
nprocs = 24
end

