#
# Ag04C2 M06-D3BJ/Def2-QZVPPD
#
! m06 d3bj def2-qzvppd def2/jk grid4 nofinalgrid opt xyzfile numfreq

*xyz 2 1
Ag      -0.000000   -0.000016    1.715553 
Ag       0.000000   -1.617524   -0.571836 
Ag       1.400774    0.808769   -0.571859 
Ag      -1.400774    0.808770   -0.571858 
*

%maxcore 5000

%pal
nprocs = 24
end

