#
# Au02N0 M06-D3BJ/Def2-TZVP
#
! m06 d3bj def2-tzvp def2/jk grid4 nofinalgrid opt xyzfile numfreq

*xyz 0 1
Au       0.000000    0.000000    1.239541 
Au       0.000000    0.000000   -1.239541 
*

%maxcore 5000

%pal
nprocs = 24
end

