#
# Au03N0_D3H M06-D3BJ/Def2-TZVPPD
#
! m06 d3bj def2-tzvppd def2/jk grid4 nofinalgrid opt xyzfile numfreq

*xyz 0 2
Au       0.000000    1.515176   -0.000000 
Au       1.312181   -0.757588    0.000000 
Au      -1.312181   -0.757588   -0.000000 
*

%maxcore 5000

%pal
nprocs = 24
end

