#
# Cu04C2 M06-D3BJ/Def2-QZVPPD
#
! m06 d3bj def2-qzvppd def2/jk grid4 nofinalgrid opt xyzfile numfreq

*xyz 2 1
Cu      -0.000001   -0.000007    1.488630 
Cu       0.000001   -1.403449   -0.496203 
Cu       1.215485    0.701727   -0.496214 
Cu      -1.215485    0.701729   -0.496213 
*

%maxcore 5000

%pal
nprocs = 24
end

