memory 144 GB

molecule {
0 2
Cu       0.000000    1.346828   -0.000000 
Cu       1.166387   -0.673414   -0.000000 
Cu      -1.166387   -0.673414   -0.000000 
 }

set dynamic_level 1
set basis Def2-TZVPPD
set df_basis Def2-universal-JKFIT

optimize("M15-D3BJ")
frequencies("M15-D3BJ")
