#
# Ag04N0 TPSSh-D3BJ/Def2-TZVPPD
#
! tpssh d3bj def2-tzvppd def2/jk grid4 nofinalgrid

*xyz 0 1
Ag      -1.015022   -0.433109    0.700282 
Ag       0.974659   -2.209777    0.043294 
Ag       1.013798    0.433158   -0.699441 
Ag      -0.973435    2.209727   -0.044135 
*

%maxcore 5000

%pal
nprocs = 24
end

