#
# Cu01N0_H TPSSh-D3BJ/Def2-TZVPPD
#
! tpssh d3bj def2-tzvppd def2/jk grid4 nofinalgrid

*xyz 0 1
Cu       0.000000    0.000000    0.048513 
H        0.000000    0.000000   -1.406870 
*

%maxcore 5000

%pal
nprocs = 24
end

