#
# NH3 TPSSh-D3BJ/Def2-TZVPPD
#
! tpssh d3bj def2-tzvppd def2/jk grid4 nofinalgrid

*xyz 0 1
N       -0.000000    0.125670    0.000000 
H       -0.933163   -0.293418    0.000000 
H        0.466582   -0.293138    0.808252 
H        0.466582   -0.293138   -0.808252 
*

%maxcore 5000

%pal
nprocs = 24
end

