memory 144 GB

molecule {
0 1
Cu       0.000000    0.000000    0.412716 
F        0.000000    0.000000   -1.329863 
 }

set dynamic_level 1
set basis Def2-TZVPPD
set df_basis Def2-universal-JKFIT

energy("M15-D3BJ")
