#
# Ag01N0_F M06-D3/Def2-TZVPPD
#
! m06 d3zero def2-tzvppd def2/jk grid4 nofinalgrid opt xyzfile numfreq

*xyz 0 1
Ag       0.000000    0.000000    0.317712 
F        0.000000    0.000000   -1.659163 
*

%maxcore 5000

%pal
nprocs = 24
end

