#
# Ag03N0_D3H M06-D3/Def2-TZVPPD
#
! m06 d3zero def2-tzvppd def2/jk grid4 nofinalgrid opt xyzfile numfreq

*xyz 0 2
Ag       0.000000    1.533951   -0.000000 
Ag       1.328441   -0.766976    0.000000 
Ag      -1.328441   -0.766976   -0.000000 
*

%maxcore 5000

%pal
nprocs = 24
end

